language Essence 1.3
letting nnodes be 13
letting nrings be 7
letting capacity be 5
letting demand be {{1, 2},
{1, 4},
{1, 9},
{1, 12},
{2, 3},
{2, 10},
{2, 13},
{3, 5},
{3, 6},
{3, 7},
{3, 8},
{4, 6},
{4, 7},
{4, 13},
{5, 6},
{5, 8},
{5, 10},
{6, 7},
{6, 12},
{7, 10},
{7, 12},
{8, 11},
{9, 11},
{10, 11}}
